
Gurobi 7.5.2 (linux64) logging started Sat Jun 23 17:36:46 2018

Changed value of parameter LogFile to result/ilp/simNo_6-n_100-m_40-s_4-minVAF_0.05-cov_2000-k_2-fn_0.10-fp_0.0001-na_0.15.ILP.gurobiSolverLog
   Prev: gurobi.log  Default: 
Changed value of parameter TimeLimit to 86400.0
   Prev: 1e+100  Min: 0.0  Max: 1e+100  Default: 1e+100
Optimize a model with 1265601 rows, 330440 columns and 3489120 nonzeros
Variable types: 0 continuous, 330440 integer (330440 binary)
Coefficient statistics:
  Matrix range     [3e-03, 3e+00]
  Objective range  [5e-01, 9e+00]
  Bounds range     [1e+00, 1e+00]
  RHS range        [3e-01, 2e+00]
Found heuristic solution: objective -15570.58384
Presolve removed 340843 rows and 215165 columns (presolve time = 6s) ...
Presolve removed 341313 rows and 215165 columns (presolve time = 11s) ...
Presolve removed 341313 rows and 215165 columns (presolve time = 15s) ...
Presolve removed 341313 rows and 215165 columns (presolve time = 20s) ...
Presolve removed 341313 rows and 215165 columns (presolve time = 26s) ...
Presolve removed 341313 rows and 215165 columns (presolve time = 30s) ...
Presolve removed 341313 rows and 215165 columns (presolve time = 35s) ...
Presolve removed 341313 rows and 215165 columns (presolve time = 40s) ...
Presolve removed 341313 rows and 215165 columns (presolve time = 46s) ...
Presolve removed 341313 rows and 215165 columns
Presolve time: 48.62s
Presolved: 924288 rows, 115275 columns, 2563056 nonzeros
Variable types: 0 continuous, 115275 integer (115275 binary)
Presolved: 115275 rows, 1039563 columns, 2678331 nonzeros

Presolve removed 115275 rows and 1039563 columns

Root simplex log...

Iteration    Objective       Primal Inf.    Dual Inf.      Time
       0    1.7543852e+01   0.000000e+00   1.020320e+05     61s
   14370   -1.9571066e+02   0.000000e+00   1.754664e+05     65s
   23723   -2.3201398e+02   0.000000e+00   0.000000e+00     70s
   23723   -2.3201398e+02   0.000000e+00   0.000000e+00     73s

Root relaxation: objective -2.320140e+02, 23723 iterations, 19.67 seconds
Total elapsed time = 124.16s
Total elapsed time = 146.73s
Total elapsed time = 166.21s
Total elapsed time = 184.14s

    Nodes    |    Current Node    |     Objective Bounds      |     Work
 Expl Unexpl |  Obj  Depth IntInf | Incumbent    BestBd   Gap | It/Node Time

     0     0 -232.01398    0 1073 -15570.584 -232.01398  98.5%     -  221s
H    0     0                    -6701.494718 -232.01398  96.5%     -  240s
H    0     0                    -500.8682446 -232.01398  53.7%     -  241s
H    0     0                    -308.7566717 -232.01398  24.9%     -  243s
     0     0 -236.97146    0 1103 -308.75667 -236.97146  23.2%     -  264s
     0     0 -238.95460    0  907 -308.75667 -238.95460  22.6%     -  297s
H    0     0                    -302.8076886 -238.95460  21.1%     -  309s
     0     0 -239.38579    0  917 -302.80769 -239.38579  20.9%     -  317s
     0     0 -239.38579    0  914 -302.80769 -239.38579  20.9%     -  327s
     0     0 -240.37729    0  964 -302.80769 -240.37729  20.6%     -  343s
H    0     0                    -289.7787541 -240.37729  17.0%     -  351s
     0     0 -241.36879    0 1029 -289.77875 -241.36879  16.7%     -  374s
     0     0 -241.36879    0 1040 -289.77875 -241.36879  16.7%     -  391s
     0     0 -241.86454    0 1051 -289.77875 -241.86454  16.5%     -  411s
     0     0 -241.86454    0 1057 -289.77875 -241.86454  16.5%     -  430s
     0     0 -242.85603    0 1065 -289.77875 -242.85603  16.2%     -  450s
H    0     0                    -282.1829211 -242.85603  13.9%     -  464s
     0     0 -242.85603    0 1069 -282.18292 -242.85603  13.9%     -  476s
     0     0 -243.78312    0  881 -282.18292 -243.78312  13.6%     -  496s
     0     0 -243.78312    0  815 -282.18292 -243.78312  13.6%     -  515s
     0     0 -244.24244    0 1001 -282.18292 -244.24244  13.4%     -  538s
     0     0 -244.24244    0 1005 -282.18292 -244.24244  13.4%     -  556s
     0     0 -245.89494    0  997 -282.18292 -245.89494  12.9%     -  577s
     0     0 -246.09324    0 1000 -282.18292 -246.09324  12.8%     -  600s
     0     0 -246.09324    0 1001 -282.18292 -246.09324  12.8%     -  609s
     0     0 -246.33560    0 1008 -282.18292 -246.33560  12.7%     -  627s
     0     0 -246.39069    0 1011 -282.18292 -246.39069  12.7%     -  647s
     0     0 -246.72119    0 1008 -282.18292 -246.72119  12.6%     -  658s
     0     0 -246.78729    0 1015 -282.18292 -246.78729  12.5%     -  668s
     0     0 -246.78729    0 1011 -282.18292 -246.78729  12.5%     -  680s
     0     0 -249.29436    0  957 -282.18292 -249.29436  11.7%     -  706s
     0     0 -249.36518    0  966 -282.18292 -249.36518  11.6%     -  728s
     0     0 -249.36518    0  960 -282.18292 -249.36518  11.6%     -  738s
     0     0 -250.35667    0  941 -282.18292 -250.35667  11.3%     -  761s
     0     0 -250.85242    0  952 -282.18292 -250.85242  11.1%     -  785s
     0     0 -250.85242    0  952 -282.18292 -250.85242  11.1%     -  795s
     0     0 -252.33967    0  958 -282.18292 -252.33967  10.6%     -  814s
     0     0 -252.33967    0  954 -282.18292 -252.33967  10.6%     -  831s
     0     0 -253.00067    0  940 -282.18292 -253.00067  10.3%     -  850s
     0     0 -253.08329    0  940 -282.18292 -253.08329  10.3%     -  874s
     0     0 -253.08329    0  934 -282.18292 -253.08329  10.3%     -  884s
     0     0 -254.32266    0  922 -282.18292 -254.32266  9.87%     -  909s
     0     0 -254.71926    0  946 -282.18292 -254.71926  9.73%     -  932s
     0     0 -254.81841    0  943 -282.18292 -254.81841  9.70%     -  943s
     0     0 -254.81841    0  943 -282.18292 -254.81841  9.70%     -  952s
     0     0 -255.06643    0  970 -282.18292 -255.06643  9.61%     -  975s
     0     0 -255.31431    0  974 -282.18292 -255.31431  9.52%     - 1003s
     0     0 -255.31431    0  958 -282.18292 -255.31431  9.52%     - 1015s
     0     0 -256.17683    0  764 -282.18292 -256.17683  9.22%     - 1041s
     0     0 -256.24125    0  974 -282.18292 -256.24125  9.19%     - 1063s
     0     0 -256.24125    0 1042 -282.18292 -256.24125  9.19%     - 1074s
     0     0 -258.18969    0 1015 -282.18292 -258.18969  8.50%     - 1108s
     0     0 -258.25859    0 1103 -282.18292 -258.25859  8.48%     - 1133s
     0     0 -258.32745    0 1084 -282.18292 -258.32745  8.45%     - 1144s
     0     0 -258.32745    0 1086 -282.18292 -258.32745  8.45%     - 1153s
     0     0 -258.84393    0 1000 -282.18292 -258.84393  8.27%     - 1178s
     0     0 -259.11490    0  920 -282.18292 -259.11490  8.17%     - 1201s
     0     0 -259.11490    0  868 -282.18292 -259.11490  8.17%     - 1211s
     0     0 -259.54624    0 1006 -282.18292 -259.54624  8.02%     - 1232s
     0     0 -259.54624    0 1003 -282.18292 -259.54624  8.02%     - 1250s
     0     0 -260.48902    0 1082 -282.18292 -260.48902  7.69%     - 1279s
     0     0 -260.49263    0 1096 -282.18292 -260.49263  7.69%     - 1299s
     0     0 -260.59253    0 1105 -282.18292 -260.59253  7.65%     - 1310s
     0     0 -260.59253    0 1110 -282.18292 -260.59253  7.65%     - 1318s
     0     0 -262.85207    0 1079 -282.18292 -262.85207  6.85%     - 1351s
     0     0 -262.85207    0 1032 -282.18292 -262.85207  6.85%     - 1372s
     0     0 -263.65627    0 1015 -282.18292 -263.65627  6.57%     - 1403s
     0     0 -263.70585    0 1031 -282.18292 -263.70585  6.55%     - 1424s
     0     0 -263.70585    0 1035 -282.18292 -263.70585  6.55%     - 1436s
     0     0 -264.45322    0 1047 -282.18292 -264.45322  6.28%     - 1464s
     0     0 -264.76896    0 1082 -282.18292 -264.76896  6.17%     - 1494s
     0     0 -264.77970    0 1041 -282.18292 -264.77970  6.17%     - 1504s
     0     0 -264.77970    0 1092 -282.18292 -264.77970  6.17%     - 1511s
     0     0 -265.68545    0 1197 -282.18292 -265.68545  5.85%     - 1544s
     0     0 -265.73126    0 1172 -282.18292 -265.73126  5.83%     - 1573s
     0     0 -265.77432    0 1165 -282.18292 -265.77432  5.81%     - 1583s
     0     0 -265.77432    0 1166 -282.18292 -265.77432  5.81%     - 1591s
     0     0 -266.37228    0 1151 -282.18292 -266.37228  5.60%     - 1615s
     0     0 -266.42498    0 1201 -282.18292 -266.42498  5.58%     - 1645s
     0     0 -266.56859    0 1179 -282.18292 -266.56859  5.53%     - 1659s
     0     0 -266.56859    0 1186 -282.18292 -266.56859  5.53%     - 1667s
     0     0 -266.96787    0 1192 -282.18292 -266.96787  5.39%     - 1691s
     0     0 -267.14771    0 1047 -282.18292 -267.14771  5.33%     - 1712s
     0     0 -267.14771    0 1041 -282.18292 -267.14771  5.33%     - 1723s
     0     0 -267.66037    0 1144 -282.18292 -267.66037  5.15%     - 1754s
     0     0 -267.87228    0 1095 -282.18292 -267.87228  5.07%     - 1781s
     0     0 -267.92356    0 1029 -282.18292 -267.92356  5.05%     - 1798s
     0     0 -267.92356    0 1032 -282.18292 -267.92356  5.05%     - 1807s
     0     0 -268.14847    0 1123 -282.18292 -268.14847  4.97%     - 1827s
     0     0 -268.15700    0 1124 -282.18292 -268.15700  4.97%     - 1848s
     0     0 -268.15700    0 1117 -282.18292 -268.15700  4.97%     - 1857s
     0     0 -268.23094    0 1097 -282.18292 -268.23094  4.94%     - 1878s
     0     0 -268.73823    0 1128 -282.18292 -268.73823  4.76%     - 1917s
     0     0 -268.80117    0 1154 -282.18292 -268.80117  4.74%     - 1932s
     0     0 -268.80663    0 1166 -282.18292 -268.80663  4.74%     - 1944s
     0     0 -268.81414    0 1175 -282.18292 -268.81414  4.74%     - 1952s
     0     0 -268.81518    0 1177 -282.18292 -268.81518  4.74%     - 1962s
     0     0 -268.87902    0 1185 -282.18292 -268.87902  4.71%     - 1981s
     0     0 -268.91347    0 1118 -282.18292 -268.91347  4.70%     - 2003s
     0     0 -268.93659    0 1127 -282.18292 -268.93659  4.69%     - 2013s
     0     0 -268.95164    0 1112 -282.18292 -268.95164  4.69%     - 2022s
     0     0 -268.95355    0 1115 -282.18292 -268.95355  4.69%     - 2032s
     0     0 -268.98230    0 1124 -282.18292 -268.98230  4.68%     - 2054s
     0     0 -268.99018    0 1131 -282.18292 -268.99018  4.68%     - 2074s
     0     0 -268.99204    0 1123 -282.18292 -268.99204  4.67%     - 2087s
     0     0 -268.99219    0 1133 -282.18292 -268.99219  4.67%     - 2107s
     0     0 -268.99227    0 1133 -282.18292 -268.99227  4.67%     - 2125s
     0     0 -269.04445    0 1092 -282.18292 -269.04445  4.66%     - 2235s
     0     0 -269.07671    0 1107 -282.18292 -269.07671  4.64%     - 2255s
     0     0 -269.08617    0 1103 -282.18292 -269.08617  4.64%     - 2264s
     0     0 -269.08713    0 1118 -282.18292 -269.08713  4.64%     - 2273s
     0     0 -269.08713    0 1127 -282.18292 -269.08713  4.64%     - 2290s
     0     0 -269.08713    0 1134 -282.18292 -269.08713  4.64%     - 2304s
     0     0 -269.08713    0 1135 -282.18292 -269.08713  4.64%     - 2321s
     0     0 -269.08713    0 1133 -282.18292 -269.08713  4.64%     - 2340s
     0     0 -269.08713    0 1108 -282.18292 -269.08713  4.64%     - 2433s
     0     0 -269.08713    0 1108 -282.18292 -269.08713  4.64%     - 2465s
     0     2 -269.09385    0 1108 -282.18292 -269.09385  4.64%     - 2586s
     1     3 -272.11506    1 1009 -282.18292 -269.11351  4.63%  3670 2608s
     2     4 -272.51995    2  955 -282.18292 -269.11351  4.63%  2260 2615s
     3     5 -280.74905    2  622 -282.18292 -269.11351  4.63%  1786 2630s
     5     4     cutoff    3      -282.18292 -269.11351  4.63%  1142 2635s
     7     4 -275.13621    1  546 -282.18292 -272.54030  3.42%  1604 2677s
     8     5 -275.52573    2  534 -282.18292 -272.54030  3.42%  1477 2682s
     9     6 -275.88907    3  504 -282.18292 -272.54030  3.42%  1370 2688s
    10     7 -281.40031    3  442 -282.18292 -272.54030  3.42%  1331 2701s
    12     9 -282.01423    4  497 -282.18292 -272.54030  3.42%  1215 2718s
    13    10 -277.82033    5  454 -282.18292 -272.54030  3.42%  1163 2725s
    15    10     cutoff    6      -282.18292 -272.54030  3.42%  1065 2735s
    17    12 -280.37333    7  489 -282.18292 -272.54030  3.42%   961 2742s
    18    13 -278.87793    8  421 -282.18292 -272.54030  3.42%   916 2745s
    20    15 -279.20843    9  277 -282.18292 -272.54030  3.42%   848 2753s
    22    15 -279.70418   10  351 -282.18292 -272.54030  3.42%   789 2757s
    24    15 -280.19993   11  300 -282.18292 -272.54030  3.42%   727 2760s
    28    15 -281.19142   13  306 -282.18292 -272.54030  3.42%   632 2766s
    33    14     cutoff   15      -282.18292 -272.54030  3.42%   539 2770s
    35    14 -273.94804    3  843 -282.18292 -272.56855  3.41%   523 2776s
    36    15 -274.93954    4  833 -282.18292 -272.56855  3.41%   513 2780s
    37    16 -281.88002    4  539 -282.18292 -272.56855  3.41%   520 2789s
    38    15     cutoff    5      -282.18292 -272.56855  3.41%   511 2790s
    41    16 -275.93103    6  808 -282.18292 -272.56855  3.41%   478 2795s
    44    17 -277.91403    8  770 -282.18292 -272.56855  3.41%   456 2801s
    47    18 -278.90552   10  773 -282.18292 -272.56855  3.41%   430 2805s
    50    19 -280.88852   12  765 -282.18292 -272.56855  3.41%   409 2811s
    53    20 -281.88002   14  722 -282.18292 -272.56855  3.41%   388 2815s
    58    17     cutoff   15      -282.18292 -272.56855  3.41%   355 2820s
    59    16     cutoff    3      -282.18292 -274.93954  2.57%   384 2838s
    60    15     cutoff    5      -282.18292 -275.17162  2.48%   381 2841s
    61    16 -279.99227    2  508 -282.18292 -275.93103  2.22%   397 2856s
    62    17 -280.68523    3  513 -282.18292 -275.93103  2.22%   401 2864s
    63    16     cutoff    4      -282.18292 -275.93103  2.22%   395 2865s
    65    18 -280.68552    4  514 -282.18292 -275.93103  2.22%   391 2874s
    66    17     cutoff    5      -282.18292 -275.93103  2.22%   386 2875s
    68    19 -280.68600    5  520 -282.18292 -275.93103  2.22%   386 2887s
    70    19 -281.40063    5  519 -282.18292 -275.93103  2.22%   384 2894s
    72    17     cutoff    6      -282.18292 -275.93103  2.22%   383 2897s
    75    14     cutoff    7      -282.18292 -277.22544  1.76%   376 2901s
    76    15 -278.50022    5  429 -282.18292 -277.91403  1.51%   376 2905s
    77    16 -281.78370    6  517 -282.18292 -277.91403  1.51%   379 2912s
    79    16 -281.78390    7  520 -282.18292 -277.91403  1.51%   371 2915s
    83    14     cutoff    9      -282.18292 -277.91403  1.51%   357 2920s
    86    13 -278.54743    6  424 -282.18292 -278.54743  1.29%   350 2928s
    87    14 -279.70418    7  343 -282.18292 -278.54743  1.29%   351 2935s
    90    13     cutoff    7      -282.18292 -280.19993  0.70%   348 2942s
    92    15 -281.19142   10  320 -282.18292 -280.19993  0.70%   346 2947s
    94    13     cutoff    9      -282.18292 -280.37354  0.64%   343 2950s
    98    11     cutoff   11      -282.18292 -280.37354  0.64%   334 2956s
   100    13 -281.47990    9  439 -282.18292 -280.37388  0.64%   331 2965s
   103    12 -280.73325    9  502 -282.18292 -280.42633  0.62%   325 2970s
   105    12     cutoff   11      -282.18292 -280.42633  0.62%   322 2975s
   107    12 -282.13956   10  511 -282.18292 -280.42633  0.62%   325 2984s
   110    11 -281.47961    8  496 -282.18292 -280.55775  0.58%   322 2989s
   111    10     cutoff    9      -282.18292 -280.55775  0.58%   320 2990s
   113    10 -281.05350    9  422 -282.18292 -280.56416  0.57%   318 2997s
   115    12 -282.10963   11  432 -282.18292 -280.56416  0.57%   317 3004s
   118    11 -282.17445   11  445 -282.18292 -280.56416  0.57%   313 3009s
   120     9     cutoff   12      -282.18292 -280.56416  0.57%   308 3010s
   123     8 -282.17368    9  489 -282.18292 -280.74911  0.51%   308 3020s
   126     5     cutoff   13      -282.18292 -281.19142  0.35%   305 3025s
   128     5 -281.46071    4  522 -282.18292 -281.43620  0.26%   303 3031s
   129     4     cutoff    5      -282.18292 -281.43620  0.26%   302 3035s
   132     1     cutoff    5      -282.18292 -282.01733  0.06%   301 3040s

Cutting planes:
  Gomory: 1
  MIR: 1
  Zero half: 373

Explored 134 nodes (135228 simplex iterations) in 3042.03 seconds
Thread count was 1 (of 80 available processors)

Solution count 7: -282.183 -289.779 -302.808 ... -15570.6

Optimal solution found (tolerance 1.00e-04)
Best objective -2.821829210578e+02, best bound -2.821829210578e+02, gap 0.0000%
